results/res_prop_muc/res_Cimatti_mathsat_cores/QF_LRA/gasburner-prop3-6.smt.smt2.res
unsat
( c100
  c103
  c104
  c110
  c113
  c116
  c12
  c121
  c122
  c128
  c129
  c130
  c131
  c132
  c136
  c142
  c145
  c148
  c151
  c152
  c153
  c154
  c158
  c159
  c168
  c169
  c170
  c171
  c172
  c174
  c178
  c180
  c182
  c184
  c185
  c186
  c190
  c192
  c193
  c194
  c195
  c196
  c199
  c20
  c200
  c202
  c209
  c217
  c24
  c25
  c30
  c32
  c39
  c43
  c44
  c45
  c46
  c52
  c54
  c55
  c56
  c57
  c63
  c71
  c73
  c75
  c76
  c77
  c78
  c82
  c84
  c86
  c88
  c89
  c90
  c94
  c97
  c98
  c99 )
